partE/conjure-output/model000001-data4.eprime-param.fzn
array [1..40] of int: weights_FunctionAsRelation_RelationAsSet_Explicit_1 = [1, 2, 3, 4, 5, 6, 7, 8, 9, 10, 11, 12, 13, 14, 15, 16, 17, 18, 19, 20, 21, 22, 23, 24, 25, 26, 27, 28, 29, 30, 31, 32, 33, 34, 35, 36, 37, 38, 39, 40];
array [1..40] of int: weights_FunctionAsRelation_RelationAsSet_Explicit_2 = [500, 500, 600, 200, 1000, 700, 900, 1000, 500, 1000, 300, 400, 800, 250, 350, 750, 950, 550, 650, 450, 380, 420, 580, 680, 480, 520, 720, 320, 880, 280, 330, 470, 530, 670, 430, 570, 630, 370, 830, 290];
array [1..40] of int: impacts_FunctionAsRelation_RelationAsSet_Explicit_1 = [1, 2, 3, 4, 5, 6, 7, 8, 9, 10, 11, 12, 13, 14, 15, 16, 17, 18, 19, 20, 21, 22, 23, 24, 25, 26, 27, 28, 29, 30, 31, 32, 33, 34, 35, 36, 37, 38, 39, 40];
array [1..40] of int: impacts_FunctionAsRelation_RelationAsSet_Explicit_2 = [8, 7, 8, 8, 8, 7, 9, 10, 7, 4, 6, 5, 9, 7, 6, 8, 5, 7, 6, 8, 7, 6, 9, 5, 7, 8, 6, 5, 4, 6, 7, 6, 5, 7, 6, 5, 4, 7, 3, 5];
array [1..40] of int: volumes_FunctionAsRelation_RelationAsSet_Explicit_2 = [1000, 1000, 1500, 500, 1500, 1000, 1600, 1200, 700, 2000, 600, 800, 1700, 400, 900, 1100, 1800, 850, 950, 750, 650, 950, 1250, 550, 850, 1050, 1150, 350, 1650, 450, 750, 550, 950, 850, 650, 1150, 1250, 450, 1550, 550];
array [1..40] of int: volumes_FunctionAsRelation_RelationAsSet_Explicit_1 = [1, 2, 3, 4, 5, 6, 7, 8, 9, 10, 11, 12, 13, 14, 15, 16, 17, 18, 19, 20, 21, 22, 23, 24, 25, 26, 27, 28, 29, 30, 31, 32, 33, 34, 35, 36, 37, 38, 39, 40];
var {0,1}: selected_Occurrence_00001_INTEGER :: output_var ;
var {0,1}: selected_Occurrence_00002_INTEGER :: output_var ;
var {0,1}: selected_Occurrence_00003_INTEGER :: output_var ;
var {0,1}: selected_Occurrence_00004_INTEGER :: output_var ;
var {0,1}: selected_Occurrence_00005_INTEGER :: output_var ;
var {0,1}: selected_Occurrence_00006_INTEGER :: output_var ;
var {0,1}: selected_Occurrence_00007_INTEGER :: output_var ;
var {0,1}: selected_Occurrence_00008_INTEGER :: output_var ;
var {0,1}: selected_Occurrence_00009_INTEGER :: output_var ;
var {0,1}: selected_Occurrence_00010_INTEGER :: output_var ;
var {0,1}: selected_Occurrence_00011_INTEGER :: output_var ;
var {0,1}: selected_Occurrence_00012_INTEGER :: output_var ;
var {0,1}: selected_Occurrence_00013_INTEGER :: output_var ;
var {0,1}: selected_Occurrence_00014_INTEGER :: output_var ;
var {0,1}: selected_Occurrence_00015_INTEGER :: output_var ;
var {0,1}: selected_Occurrence_00016_INTEGER :: output_var ;
var {0,1}: selected_Occurrence_00017_INTEGER :: output_var ;
var {0,1}: selected_Occurrence_00018_INTEGER :: output_var ;
var {0,1}: selected_Occurrence_00019_INTEGER :: output_var ;
var {0,1}: selected_Occurrence_00020_INTEGER :: output_var ;
var {0,1}: selected_Occurrence_00021_INTEGER :: output_var ;
var {0,1}: selected_Occurrence_00022_INTEGER :: output_var ;
var {0,1}: selected_Occurrence_00023_INTEGER :: output_var ;
var {0,1}: selected_Occurrence_00024_INTEGER :: output_var ;
var {0,1}: selected_Occurrence_00025_INTEGER :: output_var ;
var {0,1}: selected_Occurrence_00026_INTEGER :: output_var ;
var {0,1}: selected_Occurrence_00027_INTEGER :: output_var ;
var {0,1}: selected_Occurrence_00028_INTEGER :: output_var ;
var {0,1}: selected_Occurrence_00029_INTEGER :: output_var ;
var {0,1}: selected_Occurrence_00030_INTEGER :: output_var ;
var {0,1}: selected_Occurrence_00031_INTEGER :: output_var ;
var {0,1}: selected_Occurrence_00032_INTEGER :: output_var ;
var {0,1}: selected_Occurrence_00033_INTEGER :: output_var ;
var {0,1}: selected_Occurrence_00034_INTEGER :: output_var ;
var {0,1}: selected_Occurrence_00035_INTEGER :: output_var ;
var {0,1}: selected_Occurrence_00036_INTEGER :: output_var ;
var {0,1}: selected_Occurrence_00037_INTEGER :: output_var ;
var {0,1}: selected_Occurrence_00038_INTEGER :: output_var ;
var {0,1}: selected_Occurrence_00039_INTEGER :: output_var ;
var {0,1}: selected_Occurrence_00040_INTEGER :: output_var ;
var {0,3,4,5,6,7,8,9,10,11,12,13,14,15,16,17,18,19,20,21,22,23,24,25,26,27,28,29,30,31,32,33,34,35,36,37,38,39,40,41,42,43,44,45,46,47,48,49,50,51,52,53,54,55,56,57,58,59,60,61,62,63,64,65,66,67,68,69,70,71,72,73,74,75,76,77,78,79,80,81,82,83,84,85,86,87,88,89,90,91,92,93,94,95,96,97,98,99,100,101,102,103,104,105,106,107,108,109,110,111,112,113,114,115,116,117,118,119,120,121,122,123,124,125,126,127,128,129,130,131,132,133,134,135,136,137,138,139,140,141,142,143,144,145,146,147,148,149,150,151,152,153,154,155,156,157,158,159,160,161,162,163,164,165,166,167,168,169,170,171,172,173,174,175,176,177,178,179,180,181,182,183,184,185,186,187,188,189,190,191,192,193,194,195,196,197,198,199,200,201,202,203,204,205,206,207,208,209,210,211,212,213,214,215,216,217,218,219,220,221,222,223,224,225,226,227,228,229,230,231,232,233,234,235,236,237,238,239,240,241,242,243,244,245,246,247,248,249,250,251,252}: aux0:: var_is_introduced ;
constraint int_lin_eq([-1,8,7,8,8,8,7,9,10,7,4,6,5,9,7,6,8,5,7,6,8,7,6,9,5,7,8,6,5,4,6,7,6,5,7,6,5,4,7,3,5],[aux0,selected_Occurrence_00001_INTEGER,selected_Occurrence_00002_INTEGER,selected_Occurrence_00003_INTEGER,selected_Occurrence_00004_INTEGER,selected_Occurrence_00005_INTEGER,selected_Occurrence_00006_INTEGER,selected_Occurrence_00007_INTEGER,selected_Occurrence_00008_INTEGER,selected_Occurrence_00009_INTEGER,selected_Occurrence_00010_INTEGER,selected_Occurrence_00011_INTEGER,selected_Occurrence_00012_INTEGER,selected_Occurrence_00013_INTEGER,selected_Occurrence_00014_INTEGER,selected_Occurrence_00015_INTEGER,selected_Occurrence_00016_INTEGER,selected_Occurrence_00017_INTEGER,selected_Occurrence_00018_INTEGER,selected_Occurrence_00019_INTEGER,selected_Occurrence_00020_INTEGER,selected_Occurrence_00021_INTEGER,selected_Occurrence_00022_INTEGER,selected_Occurrence_00023_INTEGER,selected_Occurrence_00024_INTEGER,selected_Occurrence_00025_INTEGER,selected_Occurrence_00026_INTEGER,selected_Occurrence_00027_INTEGER,selected_Occurrence_00028_INTEGER,selected_Occurrence_00029_INTEGER,selected_Occurrence_00030_INTEGER,selected_Occurrence_00031_INTEGER,selected_Occurrence_00032_INTEGER,selected_Occurrence_00033_INTEGER,selected_Occurrence_00034_INTEGER,selected_Occurrence_00035_INTEGER,selected_Occurrence_00036_INTEGER,selected_Occurrence_00037_INTEGER,selected_Occurrence_00038_INTEGER,selected_Occurrence_00039_INTEGER,selected_Occurrence_00040_INTEGER],0);
constraint int_lin_le([20,20,30,10,30,20,32,24,14,40,12,16,34,8,18,22,36,17,19,15,13,19,25,11,17,21,23,7,33,9,15,11,19,17,13,23,25,9,31,11,-1],[selected_Occurrence_00001_INTEGER,selected_Occurrence_00002_INTEGER,selected_Occurrence_00003_INTEGER,selected_Occurrence_00004_INTEGER,selected_Occurrence_00005_INTEGER,selected_Occurrence_00006_INTEGER,selected_Occurrence_00007_INTEGER,selected_Occurrence_00008_INTEGER,selected_Occurrence_00009_INTEGER,selected_Occurrence_00010_INTEGER,selected_Occurrence_00011_INTEGER,selected_Occurrence_00012_INTEGER,selected_Occurrence_00013_INTEGER,selected_Occurrence_00014_INTEGER,selected_Occurrence_00015_INTEGER,selected_Occurrence_00016_INTEGER,selected_Occurrence_00017_INTEGER,selected_Occurrence_00018_INTEGER,selected_Occurrence_00019_INTEGER,selected_Occurrence_00020_INTEGER,selected_Occurrence_00021_INTEGER,selected_Occurrence_00022_INTEGER,selected_Occurrence_00023_INTEGER,selected_Occurrence_00024_INTEGER,selected_Occurrence_00025_INTEGER,selected_Occurrence_00026_INTEGER,selected_Occurrence_00027_INTEGER,selected_Occurrence_00028_INTEGER,selected_Occurrence_00029_INTEGER,selected_Occurrence_00030_INTEGER,selected_Occurrence_00031_INTEGER,selected_Occurrence_00032_INTEGER,selected_Occurrence_00033_INTEGER,selected_Occurrence_00034_INTEGER,selected_Occurrence_00035_INTEGER,selected_Occurrence_00036_INTEGER,selected_Occurrence_00037_INTEGER,selected_Occurrence_00038_INTEGER,selected_Occurrence_00039_INTEGER,selected_Occurrence_00040_INTEGER,120],0);
constraint int_lin_le([50,50,60,20,100,70,90,100,50,100,30,40,80,25,35,75,95,55,65,45,38,42,58,68,48,52,72,32,88,28,33,47,53,67,43,57,63,37,83,29,-1],[selected_Occurrence_00001_INTEGER,selected_Occurrence_00002_INTEGER,selected_Occurrence_00003_INTEGER,selected_Occurrence_00004_INTEGER,selected_Occurrence_00005_INTEGER,selected_Occurrence_00006_INTEGER,selected_Occurrence_00007_INTEGER,selected_Occurrence_00008_INTEGER,selected_Occurrence_00009_INTEGER,selected_Occurrence_00010_INTEGER,selected_Occurrence_00011_INTEGER,selected_Occurrence_00012_INTEGER,selected_Occurrence_00013_INTEGER,selected_Occurrence_00014_INTEGER,selected_Occurrence_00015_INTEGER,selected_Occurrence_00016_INTEGER,selected_Occurrence_00017_INTEGER,selected_Occurrence_00018_INTEGER,selected_Occurrence_00019_INTEGER,selected_Occurrence_00020_INTEGER,selected_Occurrence_00021_INTEGER,selected_Occurrence_00022_INTEGER,selected_Occurrence_00023_INTEGER,selected_Occurrence_00024_INTEGER,selected_Occurrence_00025_INTEGER,selected_Occurrence_00026_INTEGER,selected_Occurrence_00027_INTEGER,selected_Occurrence_00028_INTEGER,selected_Occurrence_00029_INTEGER,selected_Occurrence_00030_INTEGER,selected_Occurrence_00031_INTEGER,selected_Occurrence_00032_INTEGER,selected_Occurrence_00033_INTEGER,selected_Occurrence_00034_INTEGER,selected_Occurrence_00035_INTEGER,selected_Occurrence_00036_INTEGER,selected_Occurrence_00037_INTEGER,selected_Occurrence_00038_INTEGER,selected_Occurrence_00039_INTEGER,selected_Occurrence_00040_INTEGER,600],0);

solve :: int_search([selected_Occurrence_00001_INTEGER, selected_Occurrence_00002_INTEGER, selected_Occurrence_00003_INTEGER, selected_Occurrence_00004_INTEGER, selected_Occurrence_00005_INTEGER, selected_Occurrence_00006_INTEGER, selected_Occurrence_00007_INTEGER, selected_Occurrence_00008_INTEGER, selected_Occurrence_00009_INTEGER, selected_Occurrence_00010_INTEGER, selected_Occurrence_00011_INTEGER, selected_Occurrence_00012_INTEGER, selected_Occurrence_00013_INTEGER, selected_Occurrence_00014_INTEGER, selected_Occurrence_00015_INTEGER, selected_Occurrence_00016_INTEGER, selected_Occurrence_00017_INTEGER, selected_Occurrence_00018_INTEGER, selected_Occurrence_00019_INTEGER, selected_Occurrence_00020_INTEGER, selected_Occurrence_00021_INTEGER, selected_Occurrence_00022_INTEGER, selected_Occurrence_00023_INTEGER, selected_Occurrence_00024_INTEGER, selected_Occurrence_00025_INTEGER, selected_Occurrence_00026_INTEGER, selected_Occurrence_00027_INTEGER, selected_Occurrence_00028_INTEGER, selected_Occurrence_00029_INTEGER, selected_Occurrence_00030_INTEGER, selected_Occurrence_00031_INTEGER, selected_Occurrence_00032_INTEGER, selected_Occurrence_00033_INTEGER, selected_Occurrence_00034_INTEGER, selected_Occurrence_00035_INTEGER, selected_Occurrence_00036_INTEGER, selected_Occurrence_00037_INTEGER, selected_Occurrence_00038_INTEGER, selected_Occurrence_00039_INTEGER, selected_Occurrence_00040_INTEGER], input_order, indomain_min, complete)maximize aux0;
